\ENCODING=ISO-8859-1
\Problem name: ilog.cplex

Maximize
 obj: 824 x(0)#0 + 603 x(1)#1 + 844 x(2)#2 + 645 x(3)#3 + 655 x(4)#4
      + 953 x(5)#5 + 722 x(6)#6 + 851 x(7)#7 + 1083 x(8)#8 + 736 x(9)#9
      + 596 x(10)#10 + 947 x(11)#11 + 570 x(12)#12 + 814 x(13)#13
      + 766 x(14)#14 + 930 x(15)#15 + 1097 x(16)#16 + 947 x(17)#17
      + 665 x(18)#18 + 1020 x(19)#19 + 856 x(20)#20 + 755 x(21)#21
      + 542 x(22)#22 + 906 x(23)#23 + 711 x(24)#24 + 441 x(25)#25
      + 484 x(26)#26 + 389 x(27)#27 + 670 x(28)#28 + 909 x(29)#29
      + 954 x(30)#30 + 581 x(31)#31 + 929 x(32)#32 + 836 x(33)#33
      + 912 x(34)#34 + 732 x(35)#35 + 594 x(36)#36 + 703 x(37)#37
      + 862 x(38)#38 + 643 x(39)#39 + 633 x(40)#40 + 458 x(41)#41
      + 952 x(42)#42 + 1042 x(43)#43 + 718 x(44)#44 + 547 x(45)#45
      + 668 x(46)#46 + 780 x(47)#47 + 736 x(48)#48 + 648 x(49)#49
      + 561 x(50)#50 + 704 x(51)#51 + 815 x(52)#52 + 791 x(53)#53
      + 559 x(54)#54 + 882 x(55)#55 + 561 x(56)#56 + 869 x(57)#57
      + 862 x(58)#58 + 751 x(59)#59 + 534 x(60)#60 + 844 x(61)#61
      + 759 x(62)#62 + 682 x(63)#63 + 752 x(64)#64 + 467 x(65)#65
      + 895 x(66)#66 + 947 x(67)#67 + 1020 x(68)#68 + 838 x(69)#69
      + 762 x(70)#70 + 722 x(71)#71 + 1031 x(72)#72 + 583 x(73)#73
      + 949 x(74)#74 + 638 x(75)#75 + 732 x(76)#76 + 839 x(77)#77
      + 485 x(78)#78 + 1088 x(79)#79 + 749 x(80)#80 + 795 x(81)#81
      + 611 x(82)#82 + 796 x(83)#83 + 813 x(84)#84 + 813 x(85)#85
      + 729 x(86)#86 + 591 x(87)#87 + 582 x(88)#88 + 671 x(89)#89
      + 877 x(90)#90 + 500 x(91)#91 + 808 x(92)#92 + 490 x(93)#93
      + 786 x(94)#94 + 532 x(95)#95 + 607 x(96)#96 + 530 x(97)#97
      + 732 x(98)#98 + 971 x(99)#99
Subject To
 c1:  344 x(0)#0 + 168 x(1)#1 + 84 x(2)#2 + 83 x(3)#3 + 924 x(4)#4 + 243 x(5)#5
      + 866 x(6)#6 + 628 x(7)#7 + 389 x(8)#8 + 839 x(9)#9 + 161 x(10)#10
      + 493 x(11)#11 + 320 x(12)#12 + 304 x(13)#13 + 126 x(14)#14
      + 918 x(15)#15 + 664 x(16)#16 + 135 x(17)#17 + 317 x(18)#18
      + 447 x(19)#19 + 265 x(20)#20 + 781 x(21)#21 + 891 x(22)#22
      + 381 x(23)#23 + 778 x(24)#24 + 997 x(25)#25 + 655 x(26)#26
      + 139 x(27)#27 + 222 x(28)#28 + 199 x(29)#29 + 799 x(30)#30
      + 952 x(31)#31 + 841 x(32)#32 + 99 x(33)#33 + 716 x(34)#34 + 733 x(35)#35
      + 498 x(36)#36 + 747 x(37)#37 + 396 x(38)#38 + 906 x(39)#39
      + 997 x(40)#40 + 111 x(41)#41 + 147 x(42)#42 + 157 x(43)#43
      + 541 x(44)#44 + 951 x(45)#45 + 561 x(46)#46 + 914 x(47)#47
      + 252 x(48)#48 + 475 x(49)#49 + 418 x(50)#50 + 337 x(51)#51
      + 755 x(52)#52 + 787 x(53)#53 + 520 x(54)#54 + 451 x(55)#55
      + 728 x(56)#56 + 229 x(57)#57 + 601 x(58)#58 + 26 x(59)#59 + 514 x(60)#60
      + 922 x(61)#61 + 312 x(62)#62 + 195 x(63)#63 + 222 x(64)#64
      + 142 x(65)#65 + 588 x(66)#66 + 452 x(67)#67 + 487 x(68)#68
      + 947 x(69)#69 + 610 x(70)#70 + 870 x(71)#71 + 503 x(72)#72
      + 654 x(73)#73 + 219 x(74)#74 + 889 x(75)#75 + 456 x(76)#76
      + 588 x(77)#77 + 533 x(78)#78 + 594 x(79)#79 + 216 x(80)#80
      + 116 x(81)#81 + 771 x(82)#82 + 341 x(83)#83 + 288 x(84)#84
      + 580 x(85)#85 + 508 x(86)#86 + 994 x(87)#87 + 452 x(88)#88
      + 240 x(89)#89 + 428 x(90)#90 + 993 x(91)#91 + 656 x(92)#92
      + 150 x(93)#93 + 349 x(94)#94 + 61 x(95)#95 + 759 x(96)#96 + 451 x(97)#97
      + 347 x(98)#98 + 938 x(99)#99 <= 38056
 c2:  187 x(0)#0 + 243 x(1)#1 + 538 x(2)#2 + 838 x(3)#3 + 291 x(4)#4
      + 602 x(5)#5 + 168 x(6)#6 + 129 x(7)#7 + 527 x(8)#8 + 270 x(9)#9
      + 274 x(10)#10 + 924 x(11)#11 + 325 x(12)#12 + 449 x(13)#13
      + 887 x(14)#14 + 987 x(15)#15 + 929 x(16)#16 + 376 x(17)#17
      + 327 x(18)#18 + 202 x(19)#19 + 678 x(20)#20 + 557 x(21)#21
      + 945 x(22)#22 + 696 x(23)#23 + 495 x(24)#24 + 140 x(25)#25
      + 735 x(26)#26 + 6 x(27)#27 + 717 x(28)#28 + 727 x(29)#29 + 138 x(30)#30
      + 246 x(31)#31 + 270 x(32)#32 + 970 x(33)#33 + 93 x(34)#34 + 339 x(35)#35
      + 201 x(36)#36 + 414 x(37)#37 + 819 x(38)#38 + 677 x(39)#39
      + 756 x(40)#40 + 454 x(41)#41 + 127 x(42)#42 + 81 x(43)#43 + 33 x(44)#44
      + 187 x(45)#45 + 311 x(46)#46 + 626 x(47)#47 + 421 x(48)#48
      + 632 x(49)#49 + 96 x(50)#50 + 170 x(51)#51 + 359 x(52)#52 + 492 x(53)#53
      + 224 x(54)#54 + 79 x(55)#55 + 488 x(56)#56 + 547 x(57)#57 + 102 x(58)#58
      + 926 x(59)#59 + 278 x(60)#60 + 924 x(61)#61 + 369 x(62)#62
      + 327 x(63)#63 + 944 x(64)#64 + 864 x(65)#65 + 299 x(66)#66
      + 110 x(67)#67 + 226 x(68)#68 + 256 x(69)#69 + 956 x(70)#70
      + 229 x(71)#71 + 214 x(72)#72 + 531 x(73)#73 + 317 x(74)#74
      + 682 x(75)#75 + 22 x(76)#76 + 593 x(77)#77 + 315 x(78)#78 + 740 x(79)#79
      + 740 x(80)#80 + 899 x(81)#81 + 280 x(82)#82 + 276 x(83)#83
      + 597 x(84)#84 + 679 x(85)#85 + 297 x(86)#86 + 750 x(87)#87 + 89 x(88)#88
      + 964 x(89)#89 + 265 x(90)#90 + 228 x(91)#91 + 852 x(92)#92 + 81 x(93)#93
      + 712 x(94)#94 + 655 x(95)#95 + 26 x(96)#96 + 598 x(97)#97 + 595 x(98)#98
      + 861 x(99)#99 <= 34565
 c3:  348 x(0)#0 + 920 x(1)#1 + 930 x(2)#2 + x(3)#3 + 349 x(4)#4 + 525 x(5)#5
      + 716 x(6)#6 + 389 x(7)#7 + 659 x(8)#8 + 948 x(9)#9 + 203 x(10)#10
      + 631 x(11)#11 + 702 x(12)#12 + 666 x(13)#13 + 759 x(14)#14
      + 103 x(15)#15 + 954 x(16)#16 + 995 x(17)#17 + 299 x(18)#18
      + 908 x(19)#19 + 132 x(20)#20 + 150 x(21)#21 + 385 x(22)#22
      + 530 x(23)#23 + 230 x(24)#24 + 23 x(25)#25 + 334 x(26)#26 + 132 x(27)#27
      + 99 x(28)#28 + 244 x(29)#29 + 534 x(30)#30 + 585 x(31)#31 + 241 x(32)#32
      + 911 x(33)#33 + 822 x(34)#34 + 640 x(35)#35 + 841 x(36)#36
      + 165 x(37)#37 + 75 x(38)#38 + 771 x(39)#39 + 464 x(40)#40 + 851 x(41)#41
      + 774 x(42)#42 + 733 x(43)#43 + 731 x(44)#44 + 356 x(45)#45
      + 524 x(46)#46 + 978 x(47)#47 + 445 x(48)#48 + 106 x(49)#49 + 23 x(50)#50
      + 811 x(51)#51 + 752 x(52)#52 + 266 x(53)#53 + 806 x(54)#54
      + 655 x(55)#55 + 964 x(56)#56 + 590 x(57)#57 + 900 x(58)#58
      + 720 x(59)#59 + 122 x(60)#60 + 272 x(61)#61 + 316 x(62)#62
      + 178 x(63)#63 + 496 x(64)#64 + 820 x(65)#65 + 208 x(66)#66
      + 852 x(67)#67 + 747 x(68)#68 + 579 x(69)#69 + 259 x(70)#70
      + 444 x(71)#71 + 717 x(72)#72 + 150 x(73)#73 + 325 x(74)#74
      + 300 x(75)#75 + 788 x(76)#76 + 257 x(77)#77 + 448 x(78)#78
      + 439 x(79)#79 + 774 x(80)#80 + 763 x(81)#81 + 828 x(82)#82
      + 146 x(83)#83 + 157 x(84)#84 + 639 x(85)#85 + 679 x(86)#86
      + 170 x(87)#87 + 759 x(88)#88 + 404 x(89)#89 + 642 x(90)#90
      + 737 x(91)#91 + 594 x(92)#92 + 861 x(93)#93 + 252 x(94)#94
      + 816 x(95)#95 + 161 x(96)#96 + 23 x(97)#97 + 695 x(98)#98 + 700 x(99)#99
      <= 38861
 c4:  193 x(0)#0 + 526 x(1)#1 + 548 x(2)#2 + 928 x(3)#3 + 851 x(4)#4
      + 14 x(5)#5 + 951 x(6)#6 + 486 x(7)#7 + 671 x(8)#8 + 898 x(9)#9
      + 51 x(10)#10 + 764 x(11)#11 + 565 x(12)#12 + 199 x(13)#13 + 803 x(14)#14
      + 352 x(15)#15 + 627 x(16)#16 + 766 x(17)#17 + 877 x(18)#18
      + 621 x(19)#19 + 309 x(20)#20 + 411 x(21)#21 + 215 x(22)#22
      + 864 x(23)#23 + 312 x(24)#24 + 816 x(25)#25 + 303 x(26)#26
      + 115 x(27)#27 + 740 x(28)#28 + 145 x(29)#29 + 620 x(30)#30
      + 607 x(31)#31 + 613 x(32)#32 + 470 x(33)#33 + 566 x(34)#34
      + 791 x(35)#35 + 752 x(36)#36 + 627 x(37)#37 + 710 x(38)#38
      + 497 x(39)#39 + 718 x(40)#40 + 134 x(41)#41 + 732 x(42)#42
      + 675 x(43)#43 + 202 x(44)#44 + 501 x(45)#45 + 68 x(46)#46 + 71 x(47)#47
      + 978 x(48)#48 + 542 x(49)#49 + 848 x(50)#50 + 294 x(51)#51
      + 696 x(52)#52 + 803 x(53)#53 + 844 x(54)#54 + 374 x(55)#55
      + 221 x(56)#56 + 347 x(57)#57 + 309 x(58)#58 + 435 x(59)#59
      + 658 x(60)#60 + 666 x(61)#61 + 119 x(62)#62 + 590 x(63)#63
      + 510 x(64)#64 + 44 x(65)#65 + 352 x(66)#66 + 273 x(67)#67 + 766 x(68)#68
      + 259 x(69)#69 + 919 x(70)#70 + 902 x(71)#71 + 872 x(72)#72
      + 294 x(73)#73 + 772 x(74)#74 + 170 x(75)#75 + 454 x(76)#76
      + 238 x(77)#77 + 7 x(78)#78 + 461 x(79)#79 + 171 x(80)#80 + 567 x(81)#81
      + 920 x(82)#82 + 686 x(83)#83 + 991 x(84)#84 + 627 x(85)#85
      + 481 x(86)#86 + 897 x(87)#87 + 498 x(88)#88 + 366 x(89)#89
      + 989 x(90)#90 + 880 x(91)#91 + 98 x(92)#92 + 313 x(93)#93 + 55 x(94)#94
      + 258 x(95)#95 + 692 x(96)#96 + 743 x(97)#97 + 827 x(98)#98
      + 590 x(99)#99 <= 39706
 c5:  156 x(0)#0 + 129 x(1)#1 + 701 x(2)#2 + 629 x(3)#3 + 381 x(4)#4
      + 105 x(5)#5 + 99 x(6)#6 + 923 x(7)#7 + 312 x(8)#8 + 529 x(9)#9
      + 963 x(10)#10 + 580 x(11)#11 + 397 x(12)#12 + 538 x(13)#13
      + 836 x(14)#14 + 502 x(15)#15 + 954 x(16)#16 + 643 x(17)#17
      + 342 x(18)#18 + 658 x(19)#19 + 926 x(20)#20 + 416 x(21)#21
      + 176 x(22)#22 + 226 x(23)#23 + 92 x(24)#24 + 598 x(25)#25 + 789 x(26)#26
      + 113 x(27)#27 + 344 x(28)#28 + 767 x(29)#29 + 254 x(30)#30
      + 237 x(31)#31 + 411 x(32)#32 + 610 x(33)#33 + 902 x(34)#34
      + 734 x(35)#35 + 566 x(36)#36 + 464 x(37)#37 + 216 x(38)#38
      + 884 x(39)#39 + 456 x(40)#40 + 47 x(41)#41 + 81 x(42)#42 + 842 x(43)#43
      + 992 x(44)#44 + 390 x(45)#45 + 453 x(46)#46 + 956 x(47)#47 + 33 x(48)#48
      + 700 x(49)#49 + 442 x(50)#50 + 473 x(51)#51 + 129 x(52)#52
      + 745 x(53)#53 + 886 x(54)#54 + 64 x(55)#55 + 200 x(56)#56 + 586 x(57)#57
      + 249 x(58)#58 + 716 x(59)#59 + 648 x(60)#60 + 485 x(61)#61
      + 850 x(62)#62 + 152 x(63)#63 + 937 x(64)#64 + 25 x(65)#65 + 867 x(66)#66
      + 561 x(67)#67 + 818 x(68)#68 + 898 x(69)#69 + 348 x(70)#70
      + 678 x(71)#71 + 254 x(72)#72 + 15 x(73)#73 + x(74)#74 + 488 x(75)#75
      + 828 x(76)#76 + 156 x(77)#77 + 506 x(78)#78 + 705 x(79)#79
      + 365 x(80)#80 + 430 x(81)#81 + 222 x(82)#82 + 54 x(83)#83 + 35 x(84)#84
      + 466 x(85)#85 + 246 x(86)#86 + 356 x(87)#87 + 134 x(88)#88
      + 124 x(89)#89 + 787 x(90)#90 + 220 x(91)#91 + 166 x(92)#92
      + 665 x(93)#93 + 639 x(94)#94 + 478 x(95)#95 + 136 x(96)#96 + 11 x(97)#97
      + 204 x(98)#98 + 118 x(99)#99 <= 34214
 c6:  600 x(0)#0 + 640 x(1)#1 + 527 x(2)#2 + 209 x(3)#3 + 531 x(4)#4
      + 905 x(5)#5 + 858 x(6)#6 + 118 x(7)#7 + 81 x(8)#8 + 571 x(9)#9
      + 380 x(10)#10 + 685 x(11)#11 + 772 x(12)#12 + 711 x(13)#13
      + 689 x(14)#14 + 169 x(15)#15 + 876 x(16)#16 + 394 x(17)#17
      + 730 x(18)#18 + 877 x(19)#19 + 63 x(20)#20 + 381 x(21)#21 + 322 x(22)#22
      + 439 x(23)#23 + 993 x(24)#24 + 474 x(25)#25 + 597 x(26)#26
      + 870 x(27)#27 + 22 x(28)#28 + 762 x(29)#29 + 552 x(30)#30 + 237 x(31)#31
      + 450 x(32)#32 + 89 x(33)#33 + 201 x(34)#34 + 821 x(35)#35 + 565 x(36)#36
      + 278 x(37)#37 + 589 x(38)#38 + 692 x(39)#39 + 304 x(40)#40
      + 308 x(41)#41 + 339 x(42)#42 + 504 x(43)#43 + 72 x(44)#44 + 282 x(45)#45
      + 116 x(46)#46 + 946 x(47)#47 + 725 x(48)#48 + 210 x(49)#49
      + 223 x(50)#50 + 74 x(51)#51 + 609 x(52)#52 + 236 x(53)#53 + 271 x(54)#54
      + 246 x(55)#55 + 297 x(56)#56 + 784 x(57)#57 + 507 x(58)#58
      + 194 x(59)#59 + 141 x(60)#60 + 485 x(61)#61 + 280 x(62)#62
      + 342 x(63)#63 + 440 x(64)#64 + 509 x(65)#65 + 465 x(66)#66
      + 602 x(67)#67 + 790 x(68)#68 + 941 x(69)#69 + 90 x(70)#70 + 994 x(71)#71
      + 816 x(72)#72 + 366 x(73)#73 + 759 x(74)#74 + 282 x(75)#75
      + 232 x(76)#76 + 356 x(77)#77 + 735 x(78)#78 + 640 x(79)#79
      + 725 x(80)#80 + 833 x(81)#81 + 264 x(82)#82 + 909 x(83)#83
      + 318 x(84)#84 + 961 x(85)#85 + 777 x(86)#86 + 337 x(87)#87 + 86 x(88)#88
      + 100 x(89)#89 + 106 x(90)#90 + 56 x(91)#91 + 421 x(92)#92 + 477 x(93)#93
      + 20 x(94)#94 + 985 x(95)#95 + 784 x(96)#96 + 637 x(97)#97 + 760 x(98)#98
      + 80 x(99)#99 <= 35901
 c7:  397 x(0)#0 + 255 x(1)#1 + 520 x(2)#2 + 472 x(3)#3 + 777 x(4)#4
      + 521 x(5)#5 + 431 x(6)#6 + 347 x(7)#7 + 909 x(8)#8 + 471 x(9)#9
      + 578 x(10)#10 + 565 x(11)#11 + 556 x(12)#12 + 48 x(13)#13 + 499 x(14)#14
      + 548 x(15)#15 + 957 x(16)#16 + 773 x(17)#17 + 785 x(18)#18
      + 840 x(19)#19 + 441 x(20)#20 + 93 x(21)#21 + 474 x(22)#22 + 506 x(23)#23
      + 780 x(24)#24 + 746 x(25)#25 + 203 x(26)#26 + 309 x(27)#27
      + 931 x(28)#28 + 72 x(29)#29 + 173 x(30)#30 + 831 x(31)#31 + 730 x(32)#32
      + 131 x(33)#33 + 840 x(34)#34 + 326 x(35)#35 + 419 x(36)#36
      + 110 x(37)#37 + 492 x(38)#38 + 3 x(39)#39 + 749 x(40)#40 + 715 x(41)#41
      + 404 x(42)#42 + 928 x(43)#43 + 274 x(44)#44 + 38 x(45)#45 + 457 x(46)#46
      + 136 x(47)#47 + 214 x(48)#48 + 743 x(49)#49 + 735 x(50)#50
      + 403 x(51)#51 + 745 x(52)#52 + 603 x(53)#53 + 106 x(54)#54
      + 102 x(55)#55 + 523 x(56)#56 + 386 x(57)#57 + 687 x(58)#58
      + 284 x(59)#59 + 242 x(60)#60 + 119 x(61)#61 + 441 x(62)#62
      + 335 x(63)#63 + 821 x(64)#64 + 498 x(65)#65 + 202 x(66)#66
      + 724 x(67)#67 + 278 x(68)#68 + 708 x(69)#69 + 726 x(70)#70
      + 530 x(71)#71 + 554 x(72)#72 + 655 x(73)#73 + 774 x(74)#74
      + 760 x(75)#75 + 239 x(76)#76 + 923 x(77)#77 + 314 x(78)#78
      + 562 x(79)#79 + 2 x(80)#80 + 192 x(81)#81 + 563 x(82)#82 + 338 x(83)#83
      + 686 x(84)#84 + 639 x(85)#85 + 75 x(86)#86 + 613 x(87)#87 + 483 x(88)#88
      + 280 x(89)#89 + 429 x(90)#90 + 4 x(91)#91 + 540 x(92)#92 + 481 x(93)#93
      + 180 x(94)#94 + 352 x(95)#95 + 695 x(96)#96 + 603 x(97)#97
      + 325 x(98)#98 + 586 x(99)#99 <= 35672
 c8:  730 x(0)#0 + 524 x(1)#1 + 100 x(2)#2 + 719 x(3)#3 + 579 x(4)#4
      + 715 x(5)#5 + 208 x(6)#6 + 223 x(7)#7 + 580 x(8)#8 + 760 x(9)#9
      + 357 x(10)#10 + 384 x(11)#11 + 151 x(12)#12 + 760 x(13)#13
      + 700 x(14)#14 + 12 x(15)#15 + 560 x(16)#16 + 377 x(17)#17 + 869 x(18)#18
      + 319 x(19)#19 + 875 x(20)#20 + 857 x(21)#21 + 48 x(22)#22 + 927 x(23)#23
      + 329 x(24)#24 + 263 x(25)#25 + 118 x(26)#26 + 81 x(27)#27 + 991 x(28)#28
      + 710 x(29)#29 + 891 x(30)#30 + 496 x(31)#31 + 224 x(32)#32
      + 933 x(33)#33 + 623 x(34)#34 + 268 x(35)#35 + 536 x(36)#36
      + 336 x(37)#37 + 257 x(38)#38 + 531 x(39)#39 + 800 x(40)#40
      + 236 x(41)#41 + 755 x(42)#42 + 979 x(43)#43 + 951 x(44)#44
      + 333 x(45)#45 + 611 x(46)#46 + 923 x(47)#47 + 967 x(48)#48
      + 624 x(49)#49 + 391 x(50)#50 + 405 x(51)#51 + 371 x(52)#52
      + 799 x(53)#53 + 262 x(54)#54 + 331 x(55)#55 + 882 x(56)#56
      + 504 x(57)#57 + 630 x(58)#58 + 468 x(59)#59 + 644 x(60)#60
      + 636 x(61)#61 + 377 x(62)#62 + 861 x(63)#63 + 511 x(64)#64
      + 712 x(65)#65 + 487 x(66)#66 + 688 x(67)#67 + 593 x(68)#68
      + 973 x(69)#69 + 970 x(70)#70 + 566 x(71)#71 + 706 x(72)#72
      + 208 x(73)#73 + 859 x(74)#74 + 627 x(75)#75 + 377 x(76)#76
      + 657 x(77)#77 + 24 x(78)#78 + 926 x(79)#79 + 579 x(80)#80 + 660 x(81)#81
      + 890 x(82)#82 + 869 x(83)#83 + 867 x(84)#84 + 106 x(85)#85
      + 752 x(86)#86 + 394 x(87)#87 + 5 x(88)#88 + 412 x(89)#89 + 205 x(90)#90
      + 431 x(91)#91 + 441 x(92)#92 + 444 x(93)#93 + 762 x(94)#94
      + 451 x(95)#95 + 183 x(96)#96 + 572 x(97)#97 + 299 x(98)#98
      + 394 x(99)#99 <= 40696
 c9:  70 x(0)#0 + 403 x(1)#1 + 427 x(2)#2 + 494 x(3)#3 + 949 x(4)#4
      + 467 x(5)#5 + 831 x(6)#6 + 120 x(7)#7 + 861 x(8)#8 + 188 x(9)#9
      + 162 x(10)#10 + 932 x(11)#11 + 373 x(12)#12 + 630 x(13)#13
      + 726 x(14)#14 + 848 x(15)#15 + 644 x(16)#16 + 329 x(17)#17
      + 925 x(18)#18 + 578 x(19)#19 + 884 x(20)#20 + 60 x(21)#21 + 283 x(22)#22
      + 868 x(23)#23 + 691 x(24)#24 + 55 x(25)#25 + 748 x(26)#26 + 625 x(27)#27
      + 368 x(28)#28 + 394 x(29)#29 + 477 x(30)#30 + 316 x(31)#31
      + 280 x(32)#32 + 417 x(33)#33 + 203 x(34)#34 + 149 x(35)#35
      + 710 x(36)#36 + 438 x(37)#37 + 781 x(38)#38 + 690 x(39)#39
      + 524 x(40)#40 + 469 x(41)#41 + 978 x(42)#42 + 751 x(43)#43
      + 932 x(44)#44 + 845 x(45)#45 + 442 x(46)#46 + 294 x(47)#47
      + 509 x(48)#48 + 36 x(49)#49 + 527 x(50)#50 + 244 x(51)#51 + 6 x(52)#52
      + 992 x(53)#53 + 575 x(54)#54 + 881 x(55)#55 + 323 x(56)#56
      + 636 x(57)#57 + 72 x(58)#58 + 102 x(59)#59 + 803 x(60)#60 + 457 x(61)#61
      + 618 x(62)#62 + 588 x(63)#63 + 453 x(64)#64 + 360 x(65)#65
      + 603 x(66)#66 + 881 x(67)#67 + 246 x(68)#68 + 480 x(69)#69
      + 166 x(70)#70 + 849 x(71)#71 + 940 x(72)#72 + 828 x(73)#73
      + 224 x(74)#74 + 781 x(75)#75 + 376 x(76)#76 + 322 x(77)#77
      + 927 x(78)#78 + 294 x(79)#79 + 885 x(80)#80 + 812 x(81)#81
      + 491 x(82)#82 + 113 x(83)#83 + 163 x(84)#84 + 382 x(85)#85
      + 282 x(86)#86 + 88 x(87)#87 + 562 x(88)#88 + 908 x(89)#89 + 734 x(90)#90
      + 731 x(91)#91 + 526 x(92)#92 + 673 x(93)#93 + 205 x(94)#94 + 91 x(95)#95
      + 511 x(96)#96 + 127 x(97)#97 + 731 x(98)#98 + 243 x(99)#99 <= 38240
 c10: 422 x(0)#0 + 122 x(1)#1 + 553 x(2)#2 + 549 x(3)#3 + 607 x(4)#4
      + 610 x(5)#5 + 915 x(6)#6 + 248 x(7)#7 + 897 x(8)#8 + 708 x(9)#9
      + 485 x(10)#10 + 754 x(11)#11 + 958 x(12)#12 + 328 x(13)#13
      + 788 x(14)#14 + 959 x(15)#15 + 755 x(16)#16 + 345 x(17)#17
      + 180 x(18)#18 + 311 x(19)#19 + 711 x(20)#20 + 606 x(21)#21
      + 229 x(22)#22 + 649 x(23)#23 + 651 x(24)#24 + 195 x(25)#25 + 60 x(26)#26
      + 682 x(27)#27 + 598 x(28)#28 + 862 x(29)#29 + 186 x(30)#30
      + 307 x(31)#31 + 637 x(32)#32 + 523 x(33)#33 + 463 x(34)#34
      + 717 x(35)#35 + 244 x(36)#36 + 711 x(37)#37 + 29 x(38)#38 + 38 x(39)#39
      + 527 x(40)#40 + 52 x(41)#41 + 764 x(42)#42 + 713 x(43)#43 + 64 x(44)#44
      + 273 x(45)#45 + 648 x(46)#46 + 223 x(47)#47 + 950 x(48)#48
      + 390 x(49)#49 + 925 x(50)#50 + 583 x(51)#51 + 602 x(52)#52
      + 787 x(53)#53 + 318 x(54)#54 + 886 x(55)#55 + 593 x(56)#56 + 38 x(57)#57
      + 960 x(58)#58 + 423 x(59)#59 + 776 x(60)#60 + 798 x(61)#61
      + 297 x(62)#62 + 41 x(63)#63 + 131 x(64)#64 + 547 x(65)#65 + 992 x(66)#66
      + 27 x(67)#67 + 491 x(68)#68 + 345 x(69)#69 + 339 x(70)#70 + 560 x(71)#71
      + 603 x(72)#72 + 337 x(73)#73 + 827 x(74)#74 + 795 x(75)#75
      + 993 x(76)#76 + 118 x(77)#77 + 800 x(78)#78 + 865 x(79)#79
      + 525 x(80)#80 + 199 x(81)#81 + 588 x(82)#82 + 448 x(83)#83
      + 987 x(84)#84 + 522 x(85)#85 + 24 x(86)#86 + 67 x(87)#87 + 376 x(88)#88
      + 619 x(89)#89 + 488 x(90)#90 + 123 x(91)#91 + 566 x(92)#92
      + 415 x(93)#93 + 960 x(94)#94 + 237 x(95)#95 + 680 x(96)#96
      + 459 x(97)#97 + 115 x(98)#98 + 358 x(99)#99 <= 38062
Bounds
 0 <= x(0)#0 <= 1
 0 <= x(1)#1 <= 1
 0 <= x(2)#2 <= 1
 0 <= x(3)#3 <= 1
 0 <= x(4)#4 <= 1
 0 <= x(5)#5 <= 1
 0 <= x(6)#6 <= 1
 0 <= x(7)#7 <= 1
 0 <= x(8)#8 <= 1
 0 <= x(9)#9 <= 1
 0 <= x(10)#10 <= 1
 0 <= x(11)#11 <= 1
 0 <= x(12)#12 <= 1
 0 <= x(13)#13 <= 1
 0 <= x(14)#14 <= 1
 0 <= x(15)#15 <= 1
 0 <= x(16)#16 <= 1
 0 <= x(17)#17 <= 1
 0 <= x(18)#18 <= 1
 0 <= x(19)#19 <= 1
 0 <= x(20)#20 <= 1
 0 <= x(21)#21 <= 1
 0 <= x(22)#22 <= 1
 0 <= x(23)#23 <= 1
 0 <= x(24)#24 <= 1
 0 <= x(25)#25 <= 1
 0 <= x(26)#26 <= 1
 0 <= x(27)#27 <= 1
 0 <= x(28)#28 <= 1
 0 <= x(29)#29 <= 1
 0 <= x(30)#30 <= 1
 0 <= x(31)#31 <= 1
 0 <= x(32)#32 <= 1
 0 <= x(33)#33 <= 1
 0 <= x(34)#34 <= 1
 0 <= x(35)#35 <= 1
 0 <= x(36)#36 <= 1
 0 <= x(37)#37 <= 1
 0 <= x(38)#38 <= 1
 0 <= x(39)#39 <= 1
 0 <= x(40)#40 <= 1
 0 <= x(41)#41 <= 1
 0 <= x(42)#42 <= 1
 0 <= x(43)#43 <= 1
 0 <= x(44)#44 <= 1
 0 <= x(45)#45 <= 1
 0 <= x(46)#46 <= 1
 0 <= x(47)#47 <= 1
 0 <= x(48)#48 <= 1
 0 <= x(49)#49 <= 1
 0 <= x(50)#50 <= 1
 0 <= x(51)#51 <= 1
 0 <= x(52)#52 <= 1
 0 <= x(53)#53 <= 1
 0 <= x(54)#54 <= 1
 0 <= x(55)#55 <= 1
 0 <= x(56)#56 <= 1
 0 <= x(57)#57 <= 1
 0 <= x(58)#58 <= 1
 0 <= x(59)#59 <= 1
 0 <= x(60)#60 <= 1
 0 <= x(61)#61 <= 1
 0 <= x(62)#62 <= 1
 0 <= x(63)#63 <= 1
 0 <= x(64)#64 <= 1
 0 <= x(65)#65 <= 1
 0 <= x(66)#66 <= 1
 0 <= x(67)#67 <= 1
 0 <= x(68)#68 <= 1
 0 <= x(69)#69 <= 1
 0 <= x(70)#70 <= 1
 0 <= x(71)#71 <= 1
 0 <= x(72)#72 <= 1
 0 <= x(73)#73 <= 1
 0 <= x(74)#74 <= 1
 0 <= x(75)#75 <= 1
 0 <= x(76)#76 <= 1
 0 <= x(77)#77 <= 1
 0 <= x(78)#78 <= 1
 0 <= x(79)#79 <= 1
 0 <= x(80)#80 <= 1
 0 <= x(81)#81 <= 1
 0 <= x(82)#82 <= 1
 0 <= x(83)#83 <= 1
 0 <= x(84)#84 <= 1
 0 <= x(85)#85 <= 1
 0 <= x(86)#86 <= 1
 0 <= x(87)#87 <= 1
 0 <= x(88)#88 <= 1
 0 <= x(89)#89 <= 1
 0 <= x(90)#90 <= 1
 0 <= x(91)#91 <= 1
 0 <= x(92)#92 <= 1
 0 <= x(93)#93 <= 1
 0 <= x(94)#94 <= 1
 0 <= x(95)#95 <= 1
 0 <= x(96)#96 <= 1
 0 <= x(97)#97 <= 1
 0 <= x(98)#98 <= 1
 0 <= x(99)#99 <= 1
Generals
 x(0)#0  x(1)#1  x(2)#2  x(3)#3  x(4)#4  x(5)#5  x(6)#6  x(7)#7  x(8)#8 
 x(9)#9  x(10)#10  x(11)#11  x(12)#12  x(13)#13  x(14)#14  x(15)#15  x(16)#16 
 x(17)#17  x(18)#18  x(19)#19  x(20)#20  x(21)#21  x(22)#22  x(23)#23 
 x(24)#24  x(25)#25  x(26)#26  x(27)#27  x(28)#28  x(29)#29  x(30)#30 
 x(31)#31  x(32)#32  x(33)#33  x(34)#34  x(35)#35  x(36)#36  x(37)#37 
 x(38)#38  x(39)#39  x(40)#40  x(41)#41  x(42)#42  x(43)#43  x(44)#44 
 x(45)#45  x(46)#46  x(47)#47  x(48)#48  x(49)#49  x(50)#50  x(51)#51 
 x(52)#52  x(53)#53  x(54)#54  x(55)#55  x(56)#56  x(57)#57  x(58)#58 
 x(59)#59  x(60)#60  x(61)#61  x(62)#62  x(63)#63  x(64)#64  x(65)#65 
 x(66)#66  x(67)#67  x(68)#68  x(69)#69  x(70)#70  x(71)#71  x(72)#72 
 x(73)#73  x(74)#74  x(75)#75  x(76)#76  x(77)#77  x(78)#78  x(79)#79 
 x(80)#80  x(81)#81  x(82)#82  x(83)#83  x(84)#84  x(85)#85  x(86)#86 
 x(87)#87  x(88)#88  x(89)#89  x(90)#90  x(91)#91  x(92)#92  x(93)#93 
 x(94)#94  x(95)#95  x(96)#96  x(97)#97  x(98)#98  x(99)#99 
End
